solution status: gap limit reached
objective value:                          39902.29534
y#19                                                1 	(obj:5700)
y#20                                                1 	(obj:5700)
y#22                                                1 	(obj:5700)
y#23                                                1 	(obj:5700)
y#26                                                1 	(obj:5700)
y#40                                                1 	(obj:5700)
y#41                                                1 	(obj:5700)
x#1#23                                              1 	(obj:0.04012)
x#2#20                                              1 	(obj:0.05967)
x#3#41                                              1 	(obj:0.04947)
x#4#40                                              1 	(obj:0.02278)
x#5#41                                              1 	(obj:0.03638)
x#6#20                                              1 	(obj:0.01768)
x#7#22                                              1 	(obj:0.02737)
x#8#23                                              1 	(obj:0.01292)
x#9#22                                              1 	(obj:0.02193)
x#10#41                                             1 	(obj:0.02431)
x#11#22                                             1 	(obj:0.01496)
x#12#20                                             1 	(obj:0.06732)
x#13#22                                             1 	(obj:0.02754)
x#14#23                                             1 	(obj:0.02533)
x#15#26                                             1 	(obj:0.00442)
x#16#23                                             1 	(obj:0.01207)
x#17#23                                             1 	(obj:0.01632)
x#18#40                                             1 	(obj:0.01241)
x#19#26                                             1 	(obj:0.00731)
x#20#26                                             1 	(obj:0.01955)
x#21#22                                             1 	(obj:0.04505)
x#22#20                                             1 	(obj:0.02754)
x#23#40                                             1 	(obj:0.02159)
x#24#40                                             1 	(obj:0.04454)
x#25#19                                             1 	(obj:0.09163)
x#26#19                                             1 	(obj:0.0102)
x#27#23                                             1 	(obj:0.05542)
x#28#22                                             1 	(obj:0.01139)
x#29#22                                             1 	(obj:0.02652)
x#30#40                                             1 	(obj:0.00663)
x#31#41                                             1 	(obj:0.00357)
x#32#20                                             1 	(obj:0.02805)
x#33#20                                             1 	(obj:0.01326)
x#34#26                                             1 	(obj:0.02414)
x#35#20                                             1 	(obj:0.00867)
x#36#23                                             1 	(obj:0.05984)
x#37#26                                             1 	(obj:0.03026)
x#38#41                                             1 	(obj:0.03009)
x#39#41                                             1 	(obj:0.03689)
x#40#22                                             1 	(obj:0.02448)
x#41#19                                             1 	(obj:0.04556)
x#42#40                                             1 	(obj:0.04947)
x#43#23                                             1 	(obj:0.05984)
x#44#41                                             1 	(obj:0.03128)
x#45#20                                             1 	(obj:0.00714)
x#46#41                                             1 	(obj:0.02261)
x#47#26                                             1 	(obj:0.04148)
x#48#19                                             1 	(obj:0.00935)
x#49#19                                             1 	(obj:0.05066)
x#50#40                                             1 	(obj:0.06052)
x#51#40                                             1 	(obj:0.00731)
x#52#40                                             1 	(obj:0.03859)
x#53#23                                             1 	(obj:0.02295)
x#54#23                                             1 	(obj:0.01224)
x#55#41                                             1 	(obj:0.03723)
x#56#19                                             1 	(obj:0.00612)
x#57#19                                             1 	(obj:0.04845)
x#58#20                                             1 	(obj:0.0119)
x#59#41                                             1 	(obj:0.1122)
x#60#40                                             1 	(obj:0.01241)
x#61#41                                             1 	(obj:0.0068)
x#62#22                                             1 	(obj:0.05474)
x#63#40                                             1 	(obj:0.03332)
x#64#19                                             1 	(obj:0.02295)
x#65#26                                             1 	(obj:0.03808)
x#66#19                                             1 	(obj:0.02499)
x#67#23                                             1 	(obj:0.01207)
x#68#20                                             1 	(obj:0.02346)
x#69#26                                             1 	(obj:0.03264)
x#70#26                                             1 	(obj:0.01751)
x#71#20                                             1 	(obj:0.0153)
x#72#40                                             1 	(obj:0.01275)
x#73#19                                             1 	(obj:0.03774)
x#74#22                                             1 	(obj:0.01904)
x#75#26                                             1 	(obj:0.01734)
x#76#26                                             1 	(obj:0.01139)
x#77#26                                             1 	(obj:0.02193)
x#78#41                                             1 	(obj:0.03009)
x#79#22                                             1 	(obj:0.02159)
x#80#19                                             1 	(obj:0.03468)
